************************************************************************
file with basedata            : mm19_.bas
initial value random generator: 149200550
************************************************************************
projects                      :  1
jobs (incl. supersource/sink ):  12
horizon                       :  76
RESOURCES
  - renewable                 :  2   R
  - nonrenewable              :  2   N
  - doubly constrained        :  0   D
************************************************************************
PROJECT INFORMATION:
pronr.  #jobs rel.date duedate tardcost  MPM-Time
    1     10      0       14        6       14
************************************************************************
PRECEDENCE RELATIONS:
jobnr.    #modes  #successors   successors
   0        1          3           1   2   3
   1        3          2           4   7
   2        3          1           8
   3        3          3           5   6   8
   4        3          1          10
   5        3          2           9  10
   6        3          1           9
   7        3          2           8  10
   8        3          1          11
   9        3          1          11
  10        3          1          11
  11        1          0        
************************************************************************
REQUESTS/DURATIONS:
jobnr. mode duration  R 1  R 2  R 3  R 4  E(W 1)
------------------------------------------------------------------------
  0      1     0       0    0    0    0     0
  1      1     2       2    0    4    0    12
  2      1     4       6    0    8    0    56
  3      1     2       0    8    7    0    30
  4      1     1       3    0    6    0     9
  5      1     5       0    9    8    0    85
  6      1     4      10    0    0    6    64
  7      1     1       0    4    4    0     8
  8      1     1       6    0    7    0    13
  9      1     2       0   10    0    7    34
 10      1     7       7    0    0    4    77
 11      1     0       0    0    0    0     0
************************************************************************
RESOURCEAVAILABILITIES:
  R 1
   106
************************************************************************
RESOURCE LIMITS:
jobnr.  l(R 1)  u(R 1)
------------------------------------------------------------------------
  0        0       0
  1        3       6
  2        7      14
  3        8      15
  4        5       9
  5        9      17
  6        8      16
  7        4       8
  8        7      13
  9        9      17
 10        6      11
 11        0       0
************************************************************************
SCENARIOS:
------------------------------------------------------------------------
RESOURCE k = 1
s = 1: (0, 8, 47, 30, 12, 64, 45, 10, 16, 23, 104, 0)
s = 2: (0, 15, 50, 26, 7, 88, 40, 10, 18, 37, 71, 0)
s = 3: (0, 13, 51, 51, 9, 64, 63, 8, 12, 50, 129, 0)
s = 4: (0, 9, 53, 18, 7, 112, 84, 10, 16, 49, 62, 0)
s = 5: (0, 15, 53, 47, 12, 86, 67, 5, 14, 37, 85, 0)
s = 6: (0, 7, 65, 37, 11, 69, 105, 10, 14, 28, 69, 0)
s = 7: (0, 10, 47, 37, 9, 94, 65, 9, 14, 38, 62, 0)
s = 8: (0, 21, 50, 36, 8, 64, 81, 7, 22, 23, 42, 0)
s = 9: (0, 11, 61, 32, 6, 83, 103, 14, 17, 32, 66, 0)
s = 10: (0, 11, 66, 44, 6, 70, 67, 9, 17, 28, 58, 0)
s = 11: (0, 18, 43, 19, 16, 123, 64, 5, 21, 34, 100, 0)
s = 12: (0, 16, 73, 18, 6, 105, 85, 10, 13, 33, 95, 0)
s = 13: (0, 9, 41, 20, 13, 115, 53, 15, 12, 28, 90, 0)
s = 14: (0, 9, 41, 33, 12, 102, 67, 7, 12, 26, 80, 0)
s = 15: (0, 13, 73, 21, 10, 62, 80, 8, 12, 27, 76, 0)
s = 16: (0, 9, 45, 22, 9, 54, 98, 9, 12, 41, 54, 0)
s = 17: (0, 10, 84, 29, 8, 77, 101, 7, 13, 35, 67, 0)
s = 18: (0, 12, 58, 34, 8, 82, 82, 7, 15, 33, 93, 0)
s = 19: (0, 19, 69, 26, 13, 82, 110, 5, 11, 41, 98, 0)
s = 20: (0, 12, 74, 21, 8, 81, 90, 9, 14, 27, 111, 0)
s = 21: (0, 13, 54, 41, 7, 61, 64, 10, 17, 57, 108, 0)
s = 22: (0, 11, 66, 33, 10, 121, 95, 8, 10, 23, 136, 0)
s = 23: (0, 19, 53, 47, 7, 94, 57, 6, 20, 52, 101, 0)
s = 24: (0, 10, 75, 35, 8, 77, 87, 9, 12, 31, 77, 0)
s = 25: (0, 11, 44, 19, 8, 72, 64, 6, 13, 46, 48, 0)
s = 26: (0, 15, 66, 42, 6, 106, 81, 7, 9, 24, 51, 0)
s = 27: (0, 13, 63, 33, 6, 69, 49, 10, 9, 25, 55, 0)
s = 28: (0, 20, 83, 28, 9, 127, 38, 9, 22, 32, 72, 0)
s = 29: (0, 12, 71, 43, 12, 89, 87, 10, 9, 30, 86, 0)
s = 30: (0, 11, 35, 18, 11, 70, 63, 7, 15, 28, 82, 0)
s = 31: (0, 7, 52, 34, 15, 62, 66, 9, 15, 24, 51, 0)
s = 32: (0, 16, 69, 40, 6, 109, 49, 10, 11, 45, 56, 0)
s = 33: (0, 11, 59, 27, 8, 71, 55, 12, 9, 24, 102, 0)
s = 34: (0, 19, 59, 29, 8, 83, 57, 8, 13, 59, 95, 0)
s = 35: (0, 13, 49, 23, 9, 104, 56, 6, 12, 47, 46, 0)
s = 36: (0, 11, 59, 27, 7, 85, 40, 11, 14, 43, 73, 0)
s = 37: (0, 8, 86, 25, 7, 62, 57, 5, 20, 55, 71, 0)
s = 38: (0, 10, 48, 31, 7, 82, 73, 7, 9, 38, 92, 0)
s = 39: (0, 23, 68, 28, 13, 111, 57, 8, 11, 47, 83, 0)
s = 40: (0, 20, 87, 32, 17, 80, 45, 11, 10, 37, 77, 0)
s = 41: (0, 13, 51, 22, 11, 47, 57, 6, 11, 42, 46, 0)
s = 42: (0, 17, 39, 17, 5, 72, 47, 7, 13, 40, 44, 0)
s = 43: (0, 16, 54, 33, 11, 113, 54, 9, 15, 34, 55, 0)
s = 44: (0, 8, 40, 37, 9, 115, 83, 12, 15, 45, 72, 0)
s = 45: (0, 9, 58, 27, 9, 74, 41, 10, 9, 40, 109, 0)
s = 46: (0, 8, 60, 41, 8, 140, 58, 7, 18, 49, 49, 0)
s = 47: (0, 11, 56, 26, 7, 71, 81, 5, 15, 27, 67, 0)
s = 48: (0, 17, 40, 29, 5, 88, 69, 8, 9, 51, 62, 0)
s = 49: (0, 7, 69, 18, 9, 103, 99, 6, 19, 31, 53, 0)
s = 50: (0, 17, 62, 40, 7, 74, 77, 7, 14, 34, 109, 0)
s = 51: (0, 11, 74, 28, 13, 85, 48, 12, 19, 31, 61, 0)
s = 52: (0, 11, 60, 27, 9, 84, 73, 6, 11, 20, 71, 0)
s = 53: (0, 14, 55, 34, 16, 102, 83, 10, 13, 37, 52, 0)
s = 54: (0, 15, 43, 23, 10, 57, 84, 8, 16, 29, 117, 0)
s = 55: (0, 13, 66, 40, 13, 63, 77, 11, 9, 37, 80, 0)
s = 56: (0, 8, 40, 33, 8, 84, 107, 11, 18, 37, 73, 0)
s = 57: (0, 10, 39, 27, 12, 161, 58, 8, 13, 38, 71, 0)
s = 58: (0, 22, 43, 21, 8, 83, 65, 6, 11, 49, 73, 0)
s = 59: (0, 10, 88, 37, 16, 79, 60, 9, 17, 27, 87, 0)
s = 60: (0, 8, 49, 26, 10, 119, 48, 13, 19, 49, 53, 0)
s = 61: (0, 11, 54, 37, 9, 56, 97, 7, 16, 26, 57, 0)
s = 62: (0, 10, 41, 46, 9, 101, 51, 7, 14, 41, 53, 0)
s = 63: (0, 9, 70, 37, 8, 60, 35, 5, 13, 26, 89, 0)
s = 64: (0, 19, 78, 23, 12, 92, 51, 5, 12, 50, 67, 0)
s = 65: (0, 16, 77, 18, 13, 103, 60, 11, 18, 32, 63, 0)
s = 66: (0, 15, 40, 23, 5, 90, 62, 8, 13, 40, 51, 0)
s = 67: (0, 8, 42, 29, 9, 94, 79, 12, 11, 43, 92, 0)
s = 68: (0, 8, 68, 31, 17, 93, 40, 6, 20, 38, 56, 0)
s = 69: (0, 16, 92, 31, 9, 88, 49, 9, 16, 60, 100, 0)
s = 70: (0, 15, 39, 33, 9, 128, 65, 11, 20, 51, 67, 0)
s = 71: (0, 13, 49, 33, 11, 142, 71, 6, 13, 35, 68, 0)
s = 72: (0, 8, 44, 28, 6, 118, 101, 14, 13, 32, 81, 0)
s = 73: (0, 13, 60, 22, 10, 79, 75, 11, 16, 28, 68, 0)
s = 74: (0, 10, 48, 26, 10, 94, 89, 9, 10, 51, 63, 0)
s = 75: (0, 11, 45, 21, 10, 105, 46, 7, 19, 41, 83, 0)
s = 76: (0, 11, 58, 25, 9, 68, 104, 5, 15, 22, 63, 0)
s = 77: (0, 9, 49, 26, 15, 75, 67, 9, 10, 44, 50, 0)
s = 78: (0, 9, 96, 31, 14, 53, 84, 10, 16, 36, 47, 0)
s = 79: (0, 15, 62, 27, 6, 101, 38, 8, 8, 42, 109, 0)
s = 80: (0, 11, 54, 42, 10, 133, 60, 9, 10, 31, 45, 0)
s = 81: (0, 12, 44, 49, 8, 57, 48, 7, 10, 51, 58, 0)
s = 82: (0, 20, 90, 19, 6, 103, 55, 6, 15, 45, 70, 0)
s = 83: (0, 8, 36, 31, 11, 97, 38, 10, 12, 26, 95, 0)
s = 84: (0, 10, 62, 20, 7, 118, 83, 15, 12, 20, 48, 0)
s = 85: (0, 17, 69, 40, 17, 136, 62, 8, 13, 36, 58, 0)
s = 86: (0, 9, 40, 18, 8, 101, 45, 6, 9, 61, 59, 0)
s = 87: (0, 8, 56, 34, 9, 76, 87, 7, 16, 23, 56, 0)
s = 88: (0, 11, 67, 31, 13, 60, 48, 11, 15, 38, 81, 0)
s = 89: (0, 8, 75, 25, 13, 107, 69, 8, 13, 39, 62, 0)
s = 90: (0, 11, 82, 20, 13, 74, 76, 8, 17, 54, 95, 0)
s = 91: (0, 15, 68, 27, 5, 56, 73, 12, 22, 50, 89, 0)
s = 92: (0, 9, 36, 28, 11, 68, 58, 13, 15, 34, 54, 0)
s = 93: (0, 13, 56, 29, 11, 62, 63, 6, 19, 30, 75, 0)
s = 94: (0, 15, 34, 19, 9, 126, 53, 10, 14, 22, 78, 0)
s = 95: (0, 10, 45, 36, 12, 92, 53, 8, 18, 24, 66, 0)
s = 96: (0, 7, 45, 26, 8, 86, 52, 7, 11, 65, 93, 0)
s = 97: (0, 14, 48, 41, 10, 68, 45, 6, 22, 21, 47, 0)
s = 98: (0, 13, 60, 26, 11, 104, 99, 8, 20, 31, 61, 0)
s = 99: (0, 8, 44, 18, 6, 83, 55, 11, 13, 25, 48, 0)
s = 100: (0, 12, 95, 23, 11, 130, 47, 6, 9, 28, 73, 0)
s = 101: (0, 7, 51, 40, 11, 82, 82, 5, 11, 19, 63, 0)
s = 102: (0, 12, 54, 21, 13, 119, 55, 6, 9, 26, 123, 0)
s = 103: (0, 15, 67, 45, 5, 106, 82, 8, 10, 27, 132, 0)
s = 104: (0, 11, 49, 21, 9, 113, 57, 7, 14, 23, 49, 0)
s = 105: (0, 11, 47, 38, 11, 68, 42, 10, 11, 27, 68, 0)
s = 106: (0, 12, 89, 18, 13, 73, 49, 8, 20, 19, 83, 0)
s = 107: (0, 10, 36, 33, 15, 57, 89, 8, 13, 45, 113, 0)
s = 108: (0, 12, 69, 37, 9, 113, 69, 8, 14, 19, 69, 0)
s = 109: (0, 7, 39, 23, 5, 89, 52, 6, 8, 25, 40, 0)
s = 110: (0, 12, 50, 17, 9, 62, 46, 14, 9, 39, 92, 0)
s = 111: (0, 11, 43, 20, 6, 68, 51, 14, 8, 27, 73, 0)
s = 112: (0, 13, 89, 20, 5, 93, 36, 8, 12, 40, 114, 0)
s = 113: (0, 10, 67, 19, 8, 69, 46, 8, 18, 61, 56, 0)
s = 114: (0, 7, 62, 22, 11, 71, 75, 6, 14, 38, 101, 0)
s = 115: (0, 15, 38, 41, 15, 64, 69, 11, 16, 26, 86, 0)
s = 116: (0, 20, 50, 21, 9, 52, 44, 8, 20, 61, 55, 0)
s = 117: (0, 10, 46, 31, 9, 51, 70, 6, 18, 34, 101, 0)
s = 118: (0, 12, 49, 63, 6, 74, 56, 10, 14, 45, 70, 0)
s = 119: (0, 13, 47, 30, 8, 64, 54, 8, 11, 37, 100, 0)
s = 120: (0, 13, 33, 55, 6, 117, 61, 14, 11, 22, 56, 0)
s = 121: (0, 8, 44, 22, 7, 86, 67, 8, 8, 41, 61, 0)
s = 122: (0, 11, 59, 44, 6, 61, 36, 9, 13, 38, 63, 0)
s = 123: (0, 13, 83, 26, 10, 98, 58, 8, 21, 31, 107, 0)
s = 124: (0, 10, 63, 42, 8, 94, 69, 8, 15, 43, 118, 0)
s = 125: (0, 10, 74, 39, 13, 52, 60, 8, 11, 23, 83, 0)
s = 126: (0, 14, 36, 23, 10, 109, 85, 10, 12, 37, 105, 0)
s = 127: (0, 15, 39, 39, 11, 54, 66, 6, 15, 52, 114, 0)
s = 128: (0, 15, 53, 30, 11, 145, 38, 6, 14, 30, 107, 0)
s = 129: (0, 12, 35, 23, 11, 79, 79, 7, 10, 32, 43, 0)
s = 130: (0, 18, 46, 38, 13, 60, 80, 5, 17, 32, 75, 0)
s = 131: (0, 14, 73, 47, 10, 59, 81, 7, 23, 52, 57, 0)
s = 132: (0, 15, 68, 31, 9, 127, 57, 5, 12, 29, 90, 0)
s = 133: (0, 8, 64, 29, 6, 57, 71, 12, 16, 23, 119, 0)
s = 134: (0, 16, 65, 23, 8, 112, 98, 5, 12, 38, 56, 0)
s = 135: (0, 13, 89, 22, 14, 82, 67, 11, 15, 41, 51, 0)
s = 136: (0, 10, 36, 51, 9, 89, 45, 12, 9, 36, 126, 0)
s = 137: (0, 10, 37, 20, 7, 97, 39, 7, 16, 53, 59, 0)
s = 138: (0, 14, 44, 42, 10, 100, 62, 10, 11, 32, 89, 0)
s = 139: (0, 15, 40, 33, 11, 60, 52, 10, 14, 26, 71, 0)
s = 140: (0, 8, 53, 35, 7, 58, 71, 9, 13, 30, 63, 0)
s = 141: (0, 7, 63, 31, 9, 128, 59, 6, 11, 28, 56, 0)
s = 142: (0, 12, 60, 33, 13, 78, 61, 6, 9, 40, 47, 0)
s = 143: (0, 19, 64, 24, 7, 86, 73, 9, 11, 21, 55, 0)
s = 144: (0, 14, 53, 27, 5, 94, 93, 11, 12, 30, 64, 0)
s = 145: (0, 14, 33, 40, 11, 113, 75, 9, 10, 51, 43, 0)
s = 146: (0, 12, 61, 18, 7, 67, 50, 8, 13, 35, 68, 0)
s = 147: (0, 13, 96, 22, 6, 110, 97, 6, 18, 27, 90, 0)
s = 148: (0, 13, 54, 39, 11, 106, 74, 6, 17, 33, 113, 0)
s = 149: (0, 9, 65, 19, 6, 77, 72, 8, 8, 36, 90, 0)
s = 150: (0, 19, 36, 24, 12, 83, 38, 9, 15, 32, 78, 0)
s = 151: (0, 11, 74, 19, 13, 78, 46, 5, 12, 26, 87, 0)
s = 152: (0, 18, 37, 37, 7, 120, 51, 11, 12, 27, 77, 0)
s = 153: (0, 7, 49, 33, 12, 147, 92, 8, 10, 28, 45, 0)
s = 154: (0, 11, 48, 32, 9, 106, 36, 8, 14, 59, 88, 0)
s = 155: (0, 16, 51, 19, 11, 116, 80, 6, 12, 38, 64, 0)
s = 156: (0, 8, 74, 36, 5, 87, 68, 6, 15, 24, 93, 0)
s = 157: (0, 10, 59, 38, 11, 144, 112, 7, 20, 41, 87, 0)
s = 158: (0, 11, 32, 29, 7, 73, 56, 7, 12, 34, 51, 0)
s = 159: (0, 16, 38, 17, 8, 55, 51, 10, 10, 45, 72, 0)
s = 160: (0, 13, 33, 29, 7, 104, 66, 13, 20, 46, 68, 0)
s = 161: (0, 13, 35, 32, 8, 83, 43, 5, 13, 36, 64, 0)
s = 162: (0, 13, 95, 36, 6, 130, 44, 14, 16, 32, 121, 0)
s = 163: (0, 11, 60, 48, 8, 114, 92, 10, 19, 34, 61, 0)
s = 164: (0, 10, 80, 30, 7, 116, 112, 11, 18, 48, 94, 0)
s = 165: (0, 17, 60, 37, 10, 66, 45, 13, 17, 53, 42, 0)
s = 166: (0, 13, 67, 32, 7, 126, 69, 14, 11, 41, 67, 0)
s = 167: (0, 18, 43, 21, 9, 95, 41, 6, 13, 23, 49, 0)
s = 168: (0, 8, 34, 19, 6, 96, 39, 8, 12, 38, 73, 0)
s = 169: (0, 14, 60, 21, 10, 99, 46, 9, 12, 32, 65, 0)
s = 170: (0, 14, 56, 22, 8, 92, 55, 7, 12, 39, 81, 0)
s = 171: (0, 18, 81, 28, 14, 98, 57, 11, 12, 47, 56, 0)
s = 172: (0, 8, 64, 27, 6, 73, 81, 6, 14, 24, 128, 0)
s = 173: (0, 13, 53, 40, 10, 68, 57, 9, 10, 46, 63, 0)
s = 174: (0, 14, 55, 32, 11, 107, 63, 6, 16, 47, 52, 0)
s = 175: (0, 16, 63, 37, 9, 70, 62, 5, 14, 29, 116, 0)
s = 176: (0, 10, 51, 19, 12, 107, 63, 11, 14, 30, 76, 0)
s = 177: (0, 15, 74, 22, 12, 108, 69, 8, 18, 47, 77, 0)
s = 178: (0, 10, 66, 20, 11, 108, 94, 12, 13, 35, 70, 0)
s = 179: (0, 16, 46, 22, 8, 52, 53, 7, 18, 41, 68, 0)
s = 180: (0, 11, 54, 31, 9, 141, 87, 6, 11, 34, 84, 0)
s = 181: (0, 18, 57, 32, 9, 69, 34, 5, 12, 31, 91, 0)
s = 182: (0, 10, 38, 35, 10, 69, 47, 8, 13, 26, 84, 0)
s = 183: (0, 10, 43, 40, 9, 116, 70, 7, 14, 48, 56, 0)
s = 184: (0, 22, 47, 39, 11, 73, 40, 9, 10, 30, 86, 0)
s = 185: (0, 10, 34, 32, 7, 87, 67, 13, 14, 35, 125, 0)
s = 186: (0, 11, 78, 43, 7, 90, 66, 7, 17, 33, 44, 0)
s = 187: (0, 7, 35, 36, 7, 80, 71, 9, 13, 31, 68, 0)
s = 188: (0, 14, 42, 32, 13, 53, 103, 11, 11, 40, 114, 0)
s = 189: (0, 18, 48, 41, 5, 153, 71, 8, 12, 26, 66, 0)
s = 190: (0, 18, 65, 26, 6, 95, 49, 5, 16, 34, 57, 0)
s = 191: (0, 11, 50, 24, 8, 105, 78, 6, 13, 48, 44, 0)
s = 192: (0, 10, 79, 38, 10, 88, 38, 14, 10, 32, 92, 0)
s = 193: (0, 10, 80, 32, 12, 75, 36, 6, 17, 19, 77, 0)
s = 194: (0, 15, 81, 34, 9, 89, 54, 7, 17, 41, 62, 0)
s = 195: (0, 16, 51, 27, 6, 62, 51, 7, 14, 45, 58, 0)
s = 196: (0, 10, 90, 29, 8, 148, 55, 7, 10, 31, 79, 0)
s = 197: (0, 10, 46, 33, 8, 47, 57, 6, 11, 32, 118, 0)
s = 198: (0, 9, 34, 42, 9, 136, 91, 8, 12, 45, 116, 0)
s = 199: (0, 8, 81, 17, 11, 98, 73, 8, 14, 33, 92, 0)
s = 200: (0, 14, 67, 43, 9, 49, 81, 11, 11, 36, 78, 0)
************************************************************************
ES/LS-VALUES:
jobnr.   ES(i)    LS(i)
------------------------------------------------------------------------
  0        0        0
  1        0       57
  2        0       67
  3        0       48
  4        3       61
  5        4       53
  6        4       65
  7        3       61
  8        6       74
  9       13       72
 10       13       63
 11       25       76
************************************************************************
BIG-M-VALUES:
M1 = 23, M2 = 161
************************************************************************
